112
0
49
55
17
0
96
61
187
0
31
31
48
0
93
0
30
27
33
23
62
44
54
83
33
20
27
99
71
40
16
190
107
27
37
0
142
81
56
127
30
32
45
92
16
119
16
118
84
51
0
110
37
38
0
47
93
36
32
25
32
30
39
34
17
18
87
40
58
0
33
48
33
51
84
0
33
72
33
15
63
16
47
0
55
63
53
45
17
58
18
37
57
0
54
68
109
19
34
29
